#######################################
### Exact MIP solver for the HHCRSP ###
#######################################
-- Instance file: new-instances/HHCRSP_25_5_91_1.0_R_C.txt
-- Max threads: 4
-- Time limit: 999999 seconds
-- Use initial solution: No
Trivial flow violations prevented generating 905 variables.
Model exported.
Version identifier: 20.1.0.0 | 2020-11-10 | 9bedb6d68
CPXPARAM_Threads                                 4
CPXPARAM_TimeLimit                               999999
Tried aggregator 1 time.
LP Presolve eliminated 419 rows and 130 columns.
Reduced LP has 1213 rows, 1178 columns, and 8245 nonzeros.
Presolve time = 0.00 sec. (2.95 ticks)

Iteration log . . .
Iteration:     1   Dual objective     =             0.000000
Iteration:   113   Dual objective     =            51.001473

Solution status from MIP model:
-- Processing time: 0.007 sec.
-- Memory used: 14.9316 MB
-- Best bound: inf
-- Obj value: 51.0082
-- Gap: inf%
-- Total distance: 153.025
-- Total tardiness: 0
-- Largest tardiness: 0
